





































































































24 35 62 38 45 76 56 
0 31 48 42 10 46 
16 72 28 37 1 44 
54 67 20 75 33 11 
9 7 18 23 47 58 
66 59 65 43 55 8 30 
32 63 50 41 70 22 
21 51 52 61 25 40 
29 19 14 49 17 36 
73 68 53 71 74 6 
60 26 5 64 3 
34 39 15 2 27 13 57 
12 69 4 
